p cnf 50 1400 
1 -8 14 0
1 5 -30 0
1 -10 -4 0
1 -18 -29 0
1 -17 -2 0
1 17 -40 0
1 -13 23 0
1 39 -27 0
1 41 -9 0
1 38 -13 0
1 -16 -13 0
1 -41 26 0
1 -28 -21 0
1 10 50 0
1 -23 7 0
1 34 13 0
1 21 14 0
1 27 -41 0
1 4 -47 0
1 23 -4 0
1 -24 -47 0
1 46 15 0
1 -22 45 0
1 -8 -36 0
1 -49 -47 0
1 38 -42 0
1 -39 42 0
1 45 35 0
1 32 -5 0
1 -20 -6 0
1 -50 25 0
1 -10 25 0
1 21 34 0
1 1 -49 0
1 -33 13 0
1 -24 -6 0
1 -7 26 0
1 21 -39 0
1 34 18 0
1 -3 13 0
1 -46 -38 0
1 -36 38 0
1 -50 25 0
1 -30 -34 0
1 -10 -47 0
1 36 9 0
1 -26 -29 0
1 41 -7 0
1 -44 -38 0
1 -25 20 0
1 -45 34 0
1 18 -47 0
1 44 -7 0
1 -15 -32 0
1 10 25 0
1 -31 21 0
1 8 -19 0
1 39 -2 0
1 35 3 0
1 -49 -16 0
1 22 -35 0
1 -16 18 0
1 -42 45 0
1 -16 12 0
1 31 50 0
1 1 -12 0
1 -15 7 0
1 22 -14 0
1 -48 25 0
1 -43 -5 0
1 50 14 0
1 -25 2 0
1 2 44 0
1 -6 25 0
1 -31 24 0
1 -38 -39 0
1 -14 23 0
1 -28 -36 0
1 -49 45 0
1 -47 -30 0
1 24 -3 0
1 -27 38 0
1 11 -33 0
1 -22 -3 0
1 -25 31 0
1 -17 29 0
1 -24 21 0
1 50 18 0
1 21 -18 0
1 6 2 0
1 35 12 0
1 -14 -47 0
1 -28 -30 0
1 8 -19 0
1 40 -49 0
1 17 -18 0
1 -36 -14 0
1 16 -37 0
1 48 21 0
1 18 -44 0
1 -24 -42 0
1 11 -49 0
1 -48 13 0
1 -31 50 0
1 14 -33 0
1 -19 12 0
1 -33 -29 0
1 -30 45 0
1 -34 -30 0
1 -42 30 0
1 -18 44 0
1 -43 -50 0
1 -6 9 0
1 -37 12 0
1 -41 49 0
1 -43 -44 0
1 24 21 0
1 50 39 0
1 -32 4 0
1 4 15 0
1 -24 45 0
1 -6 -25 0
1 23 24 0
1 -18 -5 0
1 26 -50 0
1 -38 27 0
1 -31 -27 0
1 -42 45 0
1 40 -19 0
1 -43 4 0
1 -27 -6 0
1 -11 -21 0
1 21 43 0
1 -19 -4 0
1 -31 23 0
1 -18 26 0
1 44 -11 0
1 14 -42 0
1 -48 31 0
1 -2 21 0
1 -13 -6 0
1 -10 -9 0
1 32 -12 0
1 37 -48 0
1 8 7 0
1 48 -17 0
1 47 -48 0
1 18 -49 0
1 5 2 0
1 11 -41 0
1 -3 -16 0
1 13 45 0
1 -2 -36 0
1 -2 -4 0
1 -2 49 0
1 -48 18 0
1 20 -11 0
1 2 20 0
1 -35 -11 0
1 6 14 0
1 49 9 0
1 -13 1 0
1 -50 -47 0
1 -14 -32 0
1 43 -15 0
1 -35 33 0
1 44 -42 0
1 5 34 0
1 43 11 0
1 12 3 0
1 49 1 0
1 -32 7 0
1 22 8 0
1 -41 -15 0
1 -6 43 0
1 26 38 0
1 49 18 0
1 21 41 0
1 -41 28 0
1 -34 27 0
1 35 13 0
1 28 -36 0
1 -28 40 0
1 28 -8 0
1 -26 -45 0
1 36 -6 0
1 -34 46 0
1 23 44 0
1 -7 -32 0
1 17 -39 0
1 -29 12 0
1 -20 -21 0
1 -16 18 0
1 -24 6 0
1 1 24 0
1 -18 44 0
1 25 -11 0
1 -50 -26 0
1 -38 35 0
1 5 15 0
1 33 44 0
1 50 47 0
1 20 -34 0
1 28 4 0
1 -14 20 0
1 -46 -29 0
1 -13 24 0
1 -38 44 0
1 -38 -8 0
1 -4 37 0
1 21 -10 0
1 -14 -22 0
1 -42 40 0
1 -31 20 0
1 -10 1 0
1 -38 -12 0
1 -37 28 0
1 -14 21 0
1 -32 41 0
1 -41 -14 0
1 4 -31 0
1 -50 36 0
1 37 30 0
1 41 -4 0
1 32 -16 0
1 37 44 0
1 35 -6 0
1 20 15 0
1 46 -10 0
1 -46 5 0
1 18 6 0
1 24 -43 0
1 -44 -49 0
1 17 44 0
1 -15 -47 0
1 5 16 0
1 23 21 0
1 -25 -42 0
1 48 8 0
1 1 -18 0
1 -16 -38 0
1 32 -3 0
1 -50 47 0
1 12 -1 0
1 21 -28 0
1 -20 45 0
1 3 39 0
1 -50 -47 0
1 28 -18 0
1 -23 15 0
1 -40 -33 0
1 1 -15 0
1 -17 6 0
1 44 -16 0
1 4 17 0
1 -13 -1 0
1 19 -9 0
1 24 50 0
1 32 -39 0
1 3 13 0
1 -19 9 0
1 24 -44 0
1 -10 24 0
1 24 -22 0
1 -31 33 0
1 32 41 0
1 -30 -19 0
1 32 7 0
1 15 -31 0
1 24 -21 0
1 44 46 0
1 18 -20 0
1 2 -42 0
1 -33 18 0
1 -37 44 0
1 1 45 0
1 26 -31 0
1 -1 -19 0
1 15 -40 0
1 -9 21 0
1 -13 -32 0
1 49 -41 0
1 35 -1 0
1 -46 21 0
1 2 3 0
1 -21 -3 0
1 42 -7 0
1 27 -47 0
1 -28 -4 0
1 45 -41 0
1 42 -15 0
1 36 -13 0
1 -15 -27 0
1 29 34 0
1 40 37 0
1 34 30 0
1 -34 -41 0
1 32 50 0
1 14 -20 0
1 -32 -17 0
1 -43 25 0
1 -8 -2 0
1 39 12 0
1 -42 21 0
1 12 -20 0
1 20 -8 0
1 -27 25 0
1 42 -19 0
1 44 36 0
1 -38 -47 0
1 -9 -14 0
1 35 -30 0
1 -50 26 0
1 34 4 0
1 29 35 0
1 4 -24 0
1 -9 48 0
1 47 22 0
1 -18 -14 0
1 -38 41 0
1 -30 -15 0
1 16 8 0
1 27 -32 0
1 35 -1 0
1 -48 -4 0
1 25 -13 0
1 -26 50 0
1 -41 36 0
1 50 24 0
1 31 14 0
1 46 -19 0
1 19 15 0
1 19 -23 0
1 -36 17 0
1 16 26 0
1 11 1 0
1 25 27 0
1 -41 13 0
1 -19 -16 0
1 40 45 0
1 -6 45 0
1 -31 9 0
1 33 -44 0
1 18 -26 0
1 -1 -13 0
1 -25 -22 0
1 -38 -27 0
1 -21 -28 0
1 -22 37 0
1 46 -36 0
1 29 -23 0
1 -49 -20 0
1 -33 27 0
1 49 -38 0
1 14 -27 0
1 4 -3 0
1 -40 -9 0
1 45 35 0
1 8 26 0
1 46 -10 0
1 -37 -43 0
1 30 -36 0
1 -13 34 0
1 -36 40 0
1 49 -19 0
1 4 23 0
1 49 -34 0
1 44 -20 0
1 12 -8 0
1 -43 36 0
1 19 14 0
1 -3 13 0
1 -32 -39 0
1 -12 8 0
1 41 -12 0
1 31 -26 0
1 -33 -29 0
1 -14 -20 0
1 -33 -1 0
1 -13 -15 0
1 -4 29 0
1 37 -24 0
1 35 28 0
1 4 -26 0
1 4 44 0
1 -13 -41 0
1 -42 34 0
1 -49 17 0
1 46 -27 0
1 1 -40 0
1 18 22 0
1 47 -10 0
1 4 18 0
1 9 -14 0
1 48 -43 0
1 -10 3 0
1 -30 -14 0
1 3 48 0
1 -20 16 0
1 26 -49 0
1 -17 32 0
1 46 -7 0
1 -50 29 0
1 32 37 0
1 -50 3 0
1 1 5 0
1 -21 -16 0
1 -14 -2 0
1 33 -21 0
1 28 -30 0
1 -9 -11 0
1 48 -50 0
1 -2 41 0
1 46 23 0
1 39 7 0
1 -8 -38 0
1 9 -37 0
1 17 -40 0
1 1 -48 0
1 -47 -16 0
1 6 45 0
1 17 22 0
1 28 -30 0
1 -18 -39 0
1 26 -44 0
1 34 -23 0
1 -20 33 0
1 48 27 0
1 21 -15 0
1 -36 22 0
1 -2 49 0
1 -38 25 0
1 18 6 0
1 -29 -23 0
1 5 17 0
1 43 30 0
1 -44 -10 0
1 -32 -43 0
1 42 -43 0
1 -17 -47 0
1 -3 -47 0
1 -19 21 0
1 37 -44 0
1 -23 30 0
1 -40 42 0
1 35 -40 0
1 33 -7 0
1 -4 46 0
1 -43 18 0
1 -38 16 0
1 -9 -4 0
1 -46 -48 0
1 44 -49 0
1 4 47 0
1 1 -15 0
1 -47 21 0
1 8 50 0
1 -33 -27 0
1 -31 -13 0
1 10 7 0
1 -6 35 0
1 32 -3 0
1 -18 34 0
1 -5 16 0
1 -15 -31 0
1 -8 -15 0
1 27 -18 0
1 -25 -27 0
1 -12 -27 0
1 29 -8 0
1 42 -3 0
1 19 -39 0
1 -19 -41 0
1 6 -20 0
1 38 28 0
1 -4 8 0
1 34 30 0
1 38 -33 0
1 -36 18 0
1 -6 33 0
1 24 -17 0
1 37 15 0
1 -42 -29 0
1 36 28 0
1 -8 -19 0
1 -2 -39 0
1 -7 1 0
1 -34 26 0
1 -43 -37 0
1 1 -46 0
1 -25 40 0
1 -17 48 0
1 17 11 0
1 50 45 0
1 45 -43 0
1 -19 4 0
1 -40 -20 0
1 -16 -43 0
1 32 -20 0
1 18 -30 0
1 -41 -2 0
1 -6 -46 0
1 13 8 0
1 43 28 0
1 -17 46 0
1 -29 -18 0
1 18 -40 0
1 -12 1 0
1 -3 28 0
1 24 -17 0
1 25 23 0
1 -1 8 0
1 -4 -6 0
1 -23 -18 0
1 -8 46 0
1 46 -26 0
1 4 -8 0
1 25 -13 0
1 36 -16 0
1 24 -43 0
1 49 29 0
1 47 38 0
1 33 -50 0
1 -26 -43 0
1 1 34 0
1 46 -20 0
1 35 38 0
1 -31 -19 0
1 -48 -43 0
1 -30 11 0
1 -11 -21 0
1 14 19 0
1 -3 -21 0
1 -40 12 0
1 -49 -47 0
1 15 17 0
1 10 -8 0
1 19 -5 0
1 25 -44 0
1 13 29 0
1 50 -40 0
1 1 -43 0
1 -39 46 0
1 13 37 0
1 44 23 0
1 -28 13 0
1 -6 5 0
1 -34 -43 0
1 32 -46 0
1 -39 -36 0
1 -32 -11 0
1 -47 17 0
1 -28 -3 0
1 -44 -50 0
1 -41 -14 0
1 46 -16 0
1 -38 47 0
1 28 -7 0
1 -37 -50 0
1 16 -26 0
1 -29 1 0
1 1 -29 0
1 42 -3 0
1 -18 38 0
1 -35 8 0
1 -15 34 0
1 -33 -35 0
1 -10 -37 0
1 38 -25 0
1 -3 -30 0
1 -33 2 0
1 40 10 0
1 -18 -35 0
1 -18 36 0
1 -20 -17 0
1 4 -41 0
1 -16 27 0
1 7 -6 0
1 -8 -44 0
1 4 45 0
1 29 -7 0
1 -42 35 0
1 -2 46 0
1 -36 8 0
1 34 -23 0
1 -29 -31 0
1 -25 -19 0
1 -14 -5 0
1 -12 1 0
1 -36 -15 0
1 6 42 0
1 -37 17 0
1 -36 37 0
1 -16 -25 0
1 -9 18 0
1 17 41 0
1 29 -4 0
1 -41 -45 0
1 10 -11 0
1 8 -28 0
1 16 -29 0
1 -19 -45 0
1 43 -12 0
1 37 20 0
1 23 26 0
1 -20 -6 0
1 17 14 0
1 41 18 0
1 -46 29 0
1 23 46 0
1 -8 -4 0
1 23 -10 0
1 35 17 0
1 -23 -4 0
1 17 40 0
1 8 32 0
1 10 -12 0
1 -8 19 0
1 22 -47 0
1 -6 -18 0
1 -35 50 0
1 -3 29 0
1 -19 -10 0
1 42 30 0
1 48 34 0
1 -32 -25 0
1 -34 32 0
1 -23 25 0
1 20 -43 0
1 40 -45 0
1 -22 43 0
1 22 42 0
1 -26 27 0
1 -2 -22 0
1 -4 -19 0
1 -43 22 0
1 15 23 0
1 18 -27 0
1 19 -44 0
1 36 19 0
1 45 -44 0
1 -16 3 0
1 -22 17 0
1 -38 44 0
1 17 -37 0
1 13 -9 0
1 3 -25 0
1 -44 -30 0
1 -23 -17 0
1 20 -15 0
1 31 3 0
1 47 33 0
1 -19 -27 0
1 36 -19 0
1 -44 -32 0
1 11 -24 0
1 41 9 0
1 23 28 0
1 31 -6 0
1 -38 42 0
1 -18 36 0
1 -5 -49 0
1 -30 -17 0
1 41 -9 0
1 -17 -45 0
1 -22 40 0
1 -46 -14 0
1 -6 19 0
1 -5 27 0
1 25 17 0
1 -33 41 0
1 49 19 0
1 13 -43 0
1 -33 -46 0
1 10 15 0
1 -34 -2 0
1 -28 13 0
1 30 3 0
1 -43 -2 0
1 20 -38 0
1 30 10 0
1 -6 3 0
1 -18 3 0
1 -4 -17 0
1 -30 34 0
1 36 -42 0
1 43 6 0
1 -43 26 0
1 -36 -11 0
1 13 -26 0
1 -29 -36 0
1 3 -18 0
1 -1 -48 0
1 39 -12 0
1 -17 33 0
1 -9 -39 0
1 -49 16 0
1 -42 20 0
1 -2 30 0
1 12 40 0
1 25 -1 0
1 32 -30 0
1 39 29 0
1 -23 13 0
1 -25 27 0
1 -47 -26 0
1 5 28 0
1 17 -26 0
1 -27 31 0
1 -11 -49 0
1 28 -48 0
1 11 -3 0
1 30 -5 0
1 30 -40 0
1 -17 -37 0
1 12 -18 0
1 -49 2 0
1 1 -30 0
1 -28 -25 0
1 27 34 0
1 -38 25 0
1 15 -7 0
1 43 50 0
1 -17 39 0
1 40 -39 0
1 18 -31 0
1 -5 -45 0
1 -29 7 0
1 -31 -20 0
1 -26 33 0
1 32 -42 0
1 30 16 0
1 4 37 0
1 17 28 0
1 23 1 0
1 7 -41 0
1 -11 -49 0
1 31 11 0
1 2 -28 0
1 44 -24 0
1 10 -12 0
1 -40 37 0
1 37 -50 0
1 -41 29 0
1 -27 13 0
1 23 42 0
1 20 30 0
1 3 8 0
1 -20 29 0
1 15 37 0
1 -37 -33 0
1 -12 -23 0
1 -35 13 0
1 -4 15 0
1 -44 -37 0
1 45 46 0
1 25 -47 0
1 -33 42 0
1 -25 -34 0
1 7 -22 0
1 -35 -20 0
1 35 -29 0
1 15 48 0
1 43 32 0
1 29 45 0
1 -36 46 0
1 -29 -26 0
1 -47 -21 0
1 41 24 0
1 2 32 0
1 -29 26 0
1 -7 -49 0
1 -43 -46 0
1 26 39 0
1 -35 2 0
1 -28 30 0
1 50 -19 0
1 21 -19 0
1 45 -32 0
1 -19 38 0
1 -34 14 0
1 2 -16 0
1 -18 -10 0
1 -39 -35 0
1 4 49 0
1 18 31 0
1 12 -23 0
1 -11 -40 0
1 3 41 0
1 -7 15 0
1 25 30 0
1 14 16 0
1 -14 -22 0
1 -2 11 0
1 -34 -47 0
1 -36 -35 0
1 -26 -43 0
1 8 -32 0
1 -11 25 0
1 -41 46 0
1 -17 33 0
1 -43 -28 0
1 25 26 0
1 -11 -8 0
1 50 41 0
1 -23 -39 0
1 -33 -8 0
1 -50 -42 0
1 27 13 0
1 -45 50 0
1 -19 -39 0
1 -37 -15 0
1 -32 34 0
1 22 33 0
1 -40 -38 0
1 30 25 0
1 38 -44 0
1 44 38 0
1 -27 31 0
1 -46 -15 0
1 -49 39 0
1 21 32 0
1 -20 -4 0
1 29 20 0
1 -13 14 0
1 2 -49 0
1 -29 7 0
1 22 31 0
1 -19 -31 0
1 13 -12 0
1 -16 -50 0
1 20 -34 0
1 -48 -8 0
1 -6 27 0
1 -17 -9 0
1 9 -3 0
1 42 6 0
1 7 33 0
1 -13 -14 0
1 -24 -8 0
1 -46 42 0
1 18 -22 0
1 -30 -47 0
1 -50 -48 0
1 -4 31 0
1 -14 -17 0
1 43 21 0
1 -14 32 0
1 19 -47 0
1 11 7 0
1 39 -9 0
1 -38 47 0
1 -41 50 0
1 -17 6 0
1 27 -32 0
1 -13 -5 0
1 1 17 0
1 24 43 0
1 -2 -24 0
1 20 38 0
1 38 -15 0
1 45 -12 0
1 -20 10 0
1 5 21 0
1 -43 -36 0
1 -4 -7 0
1 -5 -25 0
1 -32 6 0
1 20 33 0
1 -44 32 0
1 -42 -30 0
1 1 -13 0
1 -49 11 0
1 -17 14 0
1 39 24 0
1 -30 -43 0
1 25 50 0
1 -31 5 0
1 35 -20 0
1 -33 -28 0
1 5 33 0
1 11 -31 0
1 44 -26 0
1 13 12 0
1 -26 -29 0
1 11 -14 0
1 31 49 0
1 27 -44 0
1 -26 -17 0
1 48 -6 0
1 -32 -33 0
1 44 39 0
1 -17 -49 0
1 12 -14 0
1 13 -20 0
1 -14 -20 0
1 -20 -25 0
1 45 -20 0
1 47 -1 0
1 6 40 0
1 39 29 0
1 37 9 0
1 15 -3 0
1 23 -8 0
1 33 -36 0
1 5 24 0
1 -24 -23 0
1 -13 38 0
1 17 50 0
1 9 17 0
1 20 -28 0
1 -36 9 0
1 -44 -2 0
1 -26 -48 0
1 -21 -36 0
1 -23 -12 0
1 -11 36 0
1 -3 1 0
1 28 43 0
1 -2 -49 0
1 -1 -26 0
1 24 -43 0
1 -28 3 0
1 -14 10 0
1 -46 -32 0
1 32 35 0
1 28 -34 0
1 33 -4 0
1 29 18 0
1 -11 -33 0
1 -35 -22 0
1 31 -29 0
1 10 -16 0
1 1 -44 0
1 28 23 0
1 -27 33 0
1 1 3 0
1 -36 2 0
1 23 38 0
1 -16 -42 0
1 8 4 0
1 -48 18 0
1 -41 45 0
1 27 -29 0
1 -31 28 0
1 -29 37 0
1 24 -5 0
1 46 36 0
1 40 -32 0
1 49 -47 0
1 42 47 0
1 -25 26 0
1 3 -32 0
1 -19 -7 0
1 -11 39 0
1 24 46 0
1 -28 -19 0
1 16 11 0
1 7 -20 0
1 -45 -19 0
1 -50 7 0
1 14 12 0
1 -50 41 0
1 -37 38 0
1 -7 35 0
1 -46 5 0
1 -24 2 0
1 20 19 0
1 -26 -44 0
1 5 47 0
1 -38 43 0
1 -30 -12 0
1 47 -28 0
1 -33 35 0
1 36 27 0
1 46 40 0
1 33 -12 0
1 -9 -23 0
1 15 -19 0
1 -31 -9 0
1 37 38 0
1 23 13 0
1 39 -48 0
1 37 -5 0
1 15 -8 0
1 49 3 0
1 -24 -47 0
1 28 25 0
1 -43 37 0
1 -11 45 0
1 -8 -28 0
1 -32 -15 0
1 -23 49 0
1 -2 37 0
1 34 36 0
1 -10 25 0
1 12 13 0
1 -7 1 0
1 28 27 0
1 42 50 0
1 -49 -42 0
1 29 24 0
1 9 31 0
1 6 48 0
1 -10 29 0
1 -30 20 0
1 47 -38 0
1 38 -25 0
1 -16 -36 0
1 9 -6 0
1 -28 -36 0
1 -8 -11 0
1 50 2 0
1 33 24 0
1 41 4 0
1 -5 -42 0
1 -27 -25 0
1 30 17 0
1 -3 18 0
1 -28 -18 0
1 -20 11 0
1 35 13 0
1 -16 29 0
1 21 -20 0
1 -45 9 0
1 -25 -5 0
1 -23 -13 0
1 -31 32 0
1 43 -24 0
1 37 24 0
1 2 41 0
1 11 32 0
1 -40 1 0
1 -6 -9 0
1 -21 27 0
1 9 5 0
1 -29 4 0
1 -28 16 0
1 -38 2 0
1 21 33 0
1 -10 23 0
1 -14 -4 0
1 -31 -41 0
1 43 -50 0
1 27 28 0
1 44 -2 0
1 -3 49 0
1 -32 -8 0
1 31 -19 0
1 -23 49 0
1 -39 -35 0
1 -34 2 0
1 29 50 0
1 1 35 0
1 -34 2 0
1 10 -20 0
1 -39 16 0
1 14 21 0
1 -5 -2 0
1 -3 -11 0
1 10 13 0
1 47 -6 0
1 -7 41 0
1 11 -1 0
1 16 -42 0
1 -12 23 0
1 24 -16 0
1 26 -4 0
1 -16 11 0
1 -16 11 0
1 -2 38 0
1 38 45 0
1 -37 -20 0
1 42 15 0
1 -30 20 0
1 -24 -50 0
1 10 38 0
1 -49 -44 0
1 31 35 0
1 30 22 0
1 41 -4 0
1 -18 -29 0
1 48 40 0
1 39 -44 0
1 32 -12 0
1 -5 -19 0
1 4 -42 0
1 -13 26 0
1 -29 -14 0
1 -43 -35 0
1 24 47 0
1 41 21 0
1 32 -33 0
1 2 31 0
1 -22 -26 0
1 -2 -39 0
1 -3 -25 0
1 -9 -21 0
1 -18 46 0
1 -17 -6 0
1 -39 -30 0
1 -10 -7 0
1 32 -35 0
1 24 -5 0
1 29 -40 0
1 11 -7 0
1 -3 15 0
1 20 14 0
1 -43 1 0
1 -7 -43 0
1 27 -50 0
1 -4 -35 0
1 25 -47 0
1 3 39 0
1 3 49 0
1 -12 40 0
1 41 -27 0
1 -20 -41 0
1 -40 -8 0
1 -43 23 0
1 19 45 0
1 -34 -16 0
1 14 -1 0
1 -41 -39 0
1 -16 -37 0
1 -27 14 0
1 22 28 0
1 -50 36 0
1 -31 33 0
1 49 18 0
1 -18 9 0
1 -47 17 0
1 -4 -17 0
1 -31 28 0
1 6 7 0
1 42 46 0
1 -28 -13 0
1 -30 -36 0
1 45 -25 0
1 42 -44 0
1 11 -50 0
1 -28 -21 0
1 -27 7 0
1 -2 -9 0
1 22 26 0
1 -11 43 0
1 -18 4 0
1 47 49 0
1 -48 28 0
1 49 40 0
1 -46 -44 0
1 -3 33 0
1 8 33 0
1 26 -24 0
1 27 18 0
1 -16 6 0
1 -34 -28 0
1 17 45 0
1 38 -1 0
1 33 -38 0
1 20 -39 0
1 -12 -31 0
1 49 42 0
1 -47 -42 0
1 19 -17 0
1 -11 -21 0
1 -21 7 0
1 -44 3 0
1 41 2 0
1 -33 -48 0
1 -39 -3 0
1 45 25 0
1 -41 30 0
1 -50 45 0
1 2 -39 0
1 41 -16 0
1 -17 -18 0
1 -15 25 0
1 -27 26 0
1 -50 -7 0
1 -36 -32 0
1 27 -42 0
1 30 28 0
1 43 31 0
1 48 35 0
1 9 -38 0
1 13 6 0
1 12 -41 0
1 -23 -44 0
1 -35 37 0
1 -14 49 0
1 29 -35 0
1 -20 -24 0
1 12 4 0
1 -9 21 0
1 11 -39 0
1 -33 49 0
1 -35 -9 0
1 7 -16 0
1 1 21 0
1 -45 48 0
1 -1 11 0
1 -31 -16 0
1 5 -45 0
1 44 -7 0
1 -16 36 0
1 2 31 0
1 2 -17 0
1 15 19 0
1 30 31 0
1 46 3 0
1 -48 -27 0
1 33 -42 0
1 28 -45 0
1 -26 -27 0
1 44 3 0
1 22 24 0
1 5 -48 0
1 -1 -13 0
1 -39 38 0
1 29 9 0
1 -4 -40 0
1 17 7 0
1 -30 19 0
1 42 -41 0
1 -1 7 0
1 7 -40 0
1 30 -23 0
1 -42 -30 0
1 -15 -21 0
1 -27 8 0
1 26 39 0
1 30 -16 0
1 -23 -48 0
1 38 45 0
1 17 46 0
1 -25 -47 0
1 17 -36 0
1 -44 19 0
1 -8 -6 0
1 21 -44 0
1 42 -11 0
1 -5 45 0
1 -40 1 0
1 47 18 0
1 4 -24 0
1 43 2 0
1 -8 -1 0
1 45 -5 0
1 15 43 0
1 -37 -10 0
1 -10 18 0
1 36 -46 0
1 -19 24 0
1 26 -50 0
1 1 -50 0
1 -4 32 0
1 -25 44 0
1 -4 27 0
1 45 -29 0
1 24 -39 0
1 12 -3 0
1 2 16 0
1 -15 31 0
1 -13 -26 0
1 -20 24 0
1 -1 -35 0
1 14 -6 0
1 -44 43 0
1 -45 -33 0
1 -49 13 0
1 44 31 0
1 -17 -44 0
1 -41 -12 0
1 -48 36 0
1 -11 26 0
1 -6 -3 0
1 45 -37 0
1 -49 -2 0
1 -8 7 0
1 -45 37 0
1 28 17 0
1 6 -7 0
1 -3 28 0
1 -27 25 0
1 11 8 0
1 -9 1 0
1 7 36 0
1 23 -9 0
1 26 -12 0
1 18 38 0
1 15 -50 0
1 24 -25 0
1 -32 -26 0
1 27 -34 0
1 -20 -24 0
1 -33 42 0
1 -3 4 0
1 -41 3 0
1 -2 -15 0
1 39 9 0
1 34 5 0
1 -39 17 0
1 -40 27 0
1 -19 40 0
1 -44 -20 0
1 -22 32 0
1 -46 -36 0
1 44 -10 0
1 15 -38 0
1 31 11 0
1 10 -44 0
1 -24 -46 0
1 37 27 0
1 16 39 0
1 -38 -49 0
1 3 22 0
1 -9 -16 0
1 -27 -20 0
1 -13 -21 0
1 -17 29 0
1 5 44 0
1 32 35 0
1 33 -15 0
1 37 -30 0
1 -45 1 0
1 20 -30 0
1 50 43 0
1 21 -47 0
1 40 46 0
1 16 -42 0
1 9 -43 0
1 -46 -12 0
1 46 3 0
1 10 48 0
1 16 40 0
1 9 -49 0
1 44 24 0
1 -15 31 0
1 23 8 0
1 19 43 0
1 -46 30 0
1 28 -13 0
1 3 32 0
1 30 8 0
1 -31 -35 0
1 15 -24 0
1 32 30 0
1 23 20 0
1 50 -3 0
1 16 33 0
1 -14 -26 0
1 33 41 0
1 25 -1 0
1 -25 28 0
1 8 -33 0
1 -3 20 0
1 -23 -22 0
1 4 49 0
1 24 37 0
1 27 28 0
1 -28 29 0
1 7 19 0
1 -1 13 0
1 32 41 0
1 -13 33 0
1 -32 48 0
1 35 45 0
1 22 -32 0
1 11 4 0
1 -23 9 0
1 -21 24 0
1 15 -31 0
1 -14 -48 0
1 -45 -28 0
1 -23 -11 0
1 -43 3 0
1 7 -46 0
1 4 2 0
1 -25 -28 0
1 9 32 0
1 30 11 0
1 39 15 0
1 25 44 0
1 47 49 0
1 -44 -42 0
1 43 34 0
1 12 49 0
1 -31 25 0
1 -35 6 0
1 -20 -37 0
1 31 -39 0
1 -37 -34 0
1 -25 12 0
1 -45 1 0
1 -50 -42 0
1 -17 16 0
1 21 -24 0
1 -11 -8 0
1 46 -47 0
%
0

